files/example2.cnf
c generated from code
p cnf 70 256
11  0
-1 21 0
-21  0
70  0
-21 11 0
-31 21 0
-41 31 0
-51 41 0
-61 51 0
-22 12 0
-32 22 0
-42 32 0
-52 42 0
-62 52 0
-23 13 0
-33 23 0
-43 33 0
-53 43 0
-63 53 0
-24 14 0
-34 24 0
-44 34 0
-54 44 0
-64 54 0
-25 15 0
-35 25 0
-45 35 0
-55 45 0
-65 55 0
-26 16 0
-36 26 0
-46 36 0
-56 46 0
-66 56 0
-27 17 0
-37 27 0
-47 37 0
-57 47 0
-67 57 0
-28 18 0
-38 28 0
-48 38 0
-58 48 0
-68 58 0
-29 19 0
-39 29 0
-49 39 0
-59 49 0
-69 59 0
-30 20 0
-40 30 0
-50 40 0
-60 50 0
-70 60 0
-11 12 0
-21 22 0
-31 32 0
-41 42 0
-51 52 0
-61 62 0
-12 13 0
-22 23 0
-32 33 0
-42 43 0
-52 53 0
-62 63 0
-13 14 0
-23 24 0
-33 34 0
-43 44 0
-53 54 0
-63 64 0
-14 15 0
-24 25 0
-34 35 0
-44 45 0
-54 55 0
-64 65 0
-15 16 0
-25 26 0
-35 36 0
-45 46 0
-55 56 0
-65 66 0
-16 17 0
-26 27 0
-36 37 0
-46 47 0
-56 57 0
-66 67 0
-17 18 0
-27 28 0
-37 38 0
-47 48 0
-57 58 0
-67 68 0
-18 19 0
-28 29 0
-38 39 0
-48 49 0
-58 59 0
-68 69 0
-19 20 0
-29 30 0
-39 40 0
-49 50 0
-59 60 0
-69 70 0
11 -22 0
-11 -2 22  0
21 -32 0
-21 -2 32  0
31 -42 0
-31 -2 42  0
41 -52 0
-41 -2 52  0
51 -62 0
-51 -2 62  0
11 2 -12  0
21 2 -22  0
31 2 -32  0
41 2 -42  0
51 2 -52  0
61 2 -62  0
12 -23 0
-12 -3 23  0
22 -33 0
-22 -3 33  0
32 -43 0
-32 -3 43  0
42 -53 0
-42 -3 53  0
52 -63 0
-52 -3 63  0
12 3 -13  0
22 3 -23  0
32 3 -33  0
42 3 -43  0
52 3 -53  0
62 3 -63  0
13 -24 0
-13 -4 24  0
23 -34 0
-23 -4 34  0
33 -44 0
-33 -4 44  0
43 -54 0
-43 -4 54  0
53 -64 0
-53 -4 64  0
13 4 -14  0
23 4 -24  0
33 4 -34  0
43 4 -44  0
53 4 -54  0
63 4 -64  0
14 -25 0
-14 -5 25  0
24 -35 0
-24 -5 35  0
34 -45 0
-34 -5 45  0
44 -55 0
-44 -5 55  0
54 -65 0
-54 -5 65  0
14 5 -15  0
24 5 -25  0
34 5 -35  0
44 5 -45  0
54 5 -55  0
64 5 -65  0
15 -26 0
-15 -6 26  0
25 -36 0
-25 -6 36  0
35 -46 0
-35 -6 46  0
45 -56 0
-45 -6 56  0
55 -66 0
-55 -6 66  0
15 6 -16  0
25 6 -26  0
35 6 -36  0
45 6 -46  0
55 6 -56  0
65 6 -66  0
16 -27 0
-16 -7 27  0
26 -37 0
-26 -7 37  0
36 -47 0
-36 -7 47  0
46 -57 0
-46 -7 57  0
56 -67 0
-56 -7 67  0
16 7 -17  0
26 7 -27  0
36 7 -37  0
46 7 -47  0
56 7 -57  0
66 7 -67  0
17 -28 0
-17 -8 28  0
27 -38 0
-27 -8 38  0
37 -48 0
-37 -8 48  0
47 -58 0
-47 -8 58  0
57 -68 0
-57 -8 68  0
17 8 -18  0
27 8 -28  0
37 8 -38  0
47 8 -48  0
57 8 -58  0
67 8 -68  0
18 -29 0
-18 -9 29  0
28 -39 0
-28 -9 39  0
38 -49 0
-38 -9 49  0
48 -59 0
-48 -9 59  0
58 -69 0
-58 -9 69  0
18 9 -19  0
28 9 -29  0
38 9 -39  0
48 9 -49  0
58 9 -59  0
68 9 -69  0
19 -30 0
-19 -10 30  0
29 -40 0
-29 -10 40  0
39 -50 0
-39 -10 50  0
49 -60 0
-49 -10 60  0
59 -70 0
-59 -10 70  0
19 10 -20  0
29 10 -30  0
39 10 -40  0
49 10 -50  0
59 10 -60  0
69 10 -70  0
-2  0
-3  0
-1  0
-6  0
